Data path: /scratch/opt/lxu/CFLG/benchmarks/random_B
Instance: r_25_0.4_112.txt
Result path: /scratch/opt/lxu/CFLG/results/random_B
Solver: Gurobi
Time limit: 7200
Formulation: LEFPAI
Cover: Large
julia --project=. src/main.jl /scratch/opt/lxu/CFLG/benchmarks/random_B r_25_0.4_112.txt /scratch/opt/lxu/CFLG/results/random_B Gurobi 7200 LEFPAI Large
The latest version of Julia in the `release` channel is 1.11.6+0.x64.linux.gnu. You currently have `1.11.4+0.x64.linux.gnu` installed. Run:

  juliaup update

in your terminal shell to install Julia 1.11.6+0.x64.linux.gnu and update the `release` channel to that version.
/scratch/opt/lxu/CFLG/benchmarks/random_B Gurobi 7200.0 /scratch/opt/lxu/CFLG/results/random_B r_25_0.4_112.txt LEFPAI Large
/scratch/opt/lxu/CFLG/benchmarks/random_B/r_25_0.4_112.txt

 read graph
data loaded

problem_graph/original graph: node: 25/25 edge: 112/112 dlt: 1.2844245833368715 break_avg_len: 0.6422122916684357 break_max_len: 0.9982318395224349Vbar/V, Ebar/E(25, 25, 112, 112)
Set parameter TokenServer to value "solice01.zib.de"
Set parameter Threads to value 1
Set parameter OutputFlag to value 1
Gurobi Optimizer version 12.0.1 build v12.0.1rc0 (linux64 - "Debian GNU/Linux 12 (bookworm)")

CPU model: Intel(R) Xeon(R) Gold 5222 CPU @ 3.80GHz, instruction set [SSE2|AVX|AVX2|AVX512]
Thread count: 8 physical cores, 16 logical processors, using up to 1 threads

Non-default parameters:
Threads  1

Optimize a model with 137 rows, 336 columns and 560 nonzeros
Model fingerprint: 0x9a0f4165
Coefficient statistics:
  Matrix range     [1e+00, 1e+00]
  Objective range  [1e+00, 1e+00]
  Bounds range     [1e+00, 1e+00]
  RHS range        [1e+00, 1e+00]
Presolve time: 0.00s
Presolved: 137 rows, 336 columns, 560 nonzeros

Iteration    Objective       Primal Inf.    Dual Inf.      Time
       0    1.1200000e+02   1.590000e+02   0.000000e+00      0s
     100    2.5000000e+01   0.000000e+00   0.000000e+00      0s

Solved in 100 iterations and 0.00 seconds (0.00 work units)
Optimal objective  2.500000000e+01

User-callback calls 144, time in user-callback 0.00 sec
elapsed CPU time: 0.946946 seconds
Set parameter TokenServer to value "solice01.zib.de"
Set parameter Threads to value 1
Set parameter OutputFlag to value 1
Set parameter MIPGap to value 0.0001
Set parameter TimeLimit to value 7199.053054

 more cuts: false 1.2844245833368715 false
is_attach:trueformulation:LEFPAI0 112 25

 model loaded

Gurobi Optimizer version 12.0.1 build v12.0.1rc0 (linux64 - "Debian GNU/Linux 12 (bookworm)")

CPU model: Intel(R) Xeon(R) Gold 5222 CPU @ 3.80GHz, instruction set [SSE2|AVX|AVX2|AVX512]
Thread count: 8 physical cores, 16 logical processors, using up to 1 threads

Non-default parameters:
TimeLimit  7199.053054
Threads  1

Optimize a model with 6877 rows, 5939 columns and 20195 nonzeros
Model fingerprint: 0xbbe30c84
Model has 5466 simple general constraints
  5466 INDICATOR
Variable types: 249 continuous, 5690 integer (5690 binary)
Coefficient statistics:
  Matrix range     [3e-01, 1e+00]
  Objective range  [1e+00, 1e+00]
  Bounds range     [3e-01, 1e+00]
  RHS range        [3e-01, 1e+01]
  GenCon rhs range [5e-04, 1e+00]
  GenCon coe range [1e+00, 1e+00]
Presolve added 2620 rows and 0 columns
Presolve removed 0 rows and 145 columns
Presolve time: 0.15s
Presolved: 9497 rows, 5794 columns, 33444 nonzeros
Variable types: 137 continuous, 5657 integer (5657 binary)
Found heuristic solution: objective 112.0000000
Found heuristic solution: objective 35.0000000
Found heuristic solution: objective 34.0000000

Root relaxation: objective 1.000000e+00, 3130 iterations, 0.08 seconds (0.15 work units)

    Nodes    |    Current Node    |     Objective Bounds      |     Work
 Expl Unexpl |  Obj  Depth IntInf | Incumbent    BestBd   Gap | It/Node Time

     0     0    1.00000    0   56   34.00000    1.00000  97.1%     -    0s
H    0     0                      16.0000000    1.00000  93.8%     -    0s
H    0     0                       6.0000000    1.00000  83.3%     -    0s
H    0     0                       5.0000000    1.00000  80.0%     -    0s
H    0     0                       4.0000000    1.00000  75.0%     -    0s
     0     0    1.00000    0  176    4.00000    1.00000  75.0%     -    2s
H    0     0                       3.0000000    1.00000  66.7%     -    2s
     0     0    1.00000    0  122    3.00000    1.00000  66.7%     -    2s
     0     0    1.00000    0   60    3.00000    1.00000  66.7%     -    3s
     0     0    1.00000    0  386    3.00000    1.00000  66.7%     -    3s
     0     0    1.00000    0   14    3.00000    1.00000  66.7%     -    4s
H    0     0                       2.0000000    1.00000  50.0%     -    4s
     0     0    1.00000    0  135    2.00000    1.00000  50.0%     -    4s
     0     0    1.00000    0  110    2.00000    1.00000  50.0%     -    4s
     0     0    1.00000    0  170    2.00000    1.00000  50.0%     -    4s

Cutting planes:
  Learned: 5
  Cover: 6
  Implied bound: 3
  Clique: 26
  MIR: 109
  Relax-and-lift: 1
  BQP: 1

Explored 1 nodes (42176 simplex iterations) in 5.17 seconds (6.49 work units)
Thread count was 1 (of 16 available processors)

Solution count 9: 2 3 4 ... 112

Optimal solution found (tolerance 1.00e-04)
Best objective 2.000000000000e+00, best bound 2.000000000000e+00, gap 0.0000%

User-callback calls 1570, time in user-callback 0.00 sec

 sepatime0 0 0
2.0
Stat(MathOptInterface.OPTIMAL, 2.0, 2.0, 0.0, 0.0, 0.946946, 5.171830892562866, 1, Main.CFLG.LEFPAI, "", #undef)
